(set-info :origin "Horn problem converted to SMT-LIB2 using Eldarica (https://github.com/uuverifiers/eldarica)")
(set-logic HORN)
(declare-fun INV_MAIN_0 (Int Int Int Int Int Int Int Int) Bool)
(declare-fun INV_MAIN_1 (Int Int Int Int Int Int Int Int Int Int) Bool)
(assert (forall ((A Int) (B Int) (C Int) (D Int) (E Int) (F Int) (G Int) (H Int))(=> (and (and (not (and (= G C) (not (= H D)))) (= E A)) (= F B)) (INV_MAIN_0 A B C D E F G H))))
(assert (forall ((A Int) (B Int) (C Int) (D Int) (E Int) (F Int) (G Int) (H Int)) (not (and (and (and (and (INV_MAIN_0 A B C D E F G H) (not (= H 0))) (= C B)) (= D 0)) (= G F)))))
(assert (forall ((A Int) (B Int) (C Int) (D Int) (E Int) (F Int) (G Int) (H Int)) (not (and (and (and (and (INV_MAIN_0 A B C D E F G H) (not (= D 0))) (= C B)) (= G F)) (= H 0)))))
(assert (forall ((A Int) (B Int) (C Int) (D Int) (E Int) (F Int) (G Int) (H Int) (I Int) (J Int) (K Int) (L Int) (M Int) (N Int) (O Int) (P Int) (Q Int) (R Int) (S Int) (T Int) (U Int) (V Int) (W Int) (X Int) (Y Int) (Z Int) (A1 Int) (B1 Int) (C1 Int) (D1 Int) (E1 Int) (F1 Int)) (not (and (and (and (and (and (and (and (and (and (and (and (and (and (and (and (and (and (and (and (and (and (and (and (and (and (and (and (and (and (and (and (INV_MAIN_0 A B C D E F G H) (INV_MAIN_0 I J K L M N O P)) (INV_MAIN_0 Q R S T U V W X)) (INV_MAIN_0 Y Z A1 B1 C1 D1 E1 F1)) (not (and (= A1 Z) (not (= B1 0))))) (not (and (= D1 A1) (not (= F1 0))))) (not (= F1 B1))) (= E1 A1)) (= Q Y)) (= R Z)) (= S A1)) (= T B1)) (= U C1)) (= V D1)) (= W D1)) (= X 0)) (= I Y)) (= J Z)) (= K Z)) (= L 0)) (= M C1)) (= N D1)) (= O A1)) (= P F1)) (= A Y)) (= B Z)) (= C Z)) (= D 0)) (= E C1)) (= F D1)) (= G D1)) (= H 0)))))
(assert (forall ((A Int) (B Int) (C Int) (D Int) (E Int) (F Int) (G Int) (H Int) (I Int) (J Int) (K Int) (L Int) (M Int) (N Int) (O Int) (P Int) (Q Int) (R Int) (S Int) (T Int) (U Int) (V Int) (W Int) (X Int) (Y Int) (Z Int) (A1 Int) (B1 Int) (C1 Int) (D1 Int) (E1 Int) (F1 Int) (G1 Int) (H1 Int) (I1 Int) (J1 Int) (K1 Int) (L1 Int) (M1 Int) (N1 Int) (O1 Int) (P1 Int))(=> (and (and (and (and (and (and (and (and (and (and (and (and (and (and (and (and (and (and (and (and (and (and (and (and (and (and (and (and (and (and (and (and (and (and (and (and (and (and (and (INV_MAIN_0 K L M N O P Q R) (INV_MAIN_0 S T U V W X Y Z)) (INV_MAIN_0 A1 B1 C1 D1 E1 F1 G1 H1)) (INV_MAIN_0 I1 J1 K1 L1 M1 N1 O1 P1)) (not (and (= D C) (not (= V E))))) (not (and (= I H) (not (= H1 J))))) (not (= H1 0))) (not (= V 0))) (= B A)) (= G 0)) (= I1 A)) (= J1 C)) (= K1 D)) (= L1 E)) (= M1 F)) (= N1 H)) (= O1 I)) (= P1 J)) (= A1 A)) (= B1 C)) (= C1 D)) (= D1 E)) (= E1 F)) (= F1 H)) (= G1 H)) (= S A)) (= T C)) (= U C)) (= W F)) (= X H)) (= Y I)) (= Z J)) (= K A)) (= L C)) (= M C)) (= N V)) (= O F)) (= P H)) (= Q H)) (= R H1)) (INV_MAIN_1 A B C D E F G H I J))))
(assert (forall ((A Int) (B Int) (C Int) (D Int) (E Int) (F Int) (G Int) (H Int) (I Int) (J Int) (K Int) (L Int) (M Int) (N Int) (O Int) (P Int) (Q Int) (R Int) (S Int) (T Int)) (not (and (and (and (and (and (and (and (and (and (and (and (and (and (and (and (INV_MAIN_1 A B C D E F G H I J) (INV_MAIN_1 K L M N O P Q R S T)) (not (= O 0))) (= N M)) (= (+ S (- (* (- 1) Q) P)) 0)) (= T 0)) (= A K)) (= B L)) (= C M)) (= D K)) (= E O)) (= F P)) (= G Q)) (= H R)) (= (+ I (- (* (- 1) Q) P)) 0)) (= J 0)))))
(assert (forall ((A Int) (B Int) (C Int) (D Int) (E Int) (F Int) (G Int) (H Int) (I Int) (J Int) (K Int) (L Int) (M Int) (N Int) (O Int) (P Int) (Q Int) (R Int) (S Int) (T Int)) (not (and (and (and (and (and (and (and (and (and (and (and (and (and (and (and (INV_MAIN_1 A B C D E F G H I J) (INV_MAIN_1 K L M N O P Q R S T)) (not (= T 0))) (= N K)) (= O 0)) (= S R)) (= A K)) (= B L)) (= C M)) (= D K)) (= E 0)) (= F P)) (= G Q)) (= H R)) (= (+ I (- (* (- 1) Q) P)) 0)) (= J T)))))
(assert (forall ((A Int) (B Int) (C Int) (D Int) (E Int) (F Int) (G Int) (H Int) (I Int) (J Int) (K Int) (L Int) (M Int) (N Int) (O Int) (P Int) (Q Int) (R Int) (S Int) (T Int) (U Int) (V Int) (W Int) (X Int) (Y Int) (Z Int) (A1 Int) (B1 Int) (C1 Int) (D1 Int) (E1 Int) (F1 Int) (G1 Int) (H1 Int) (I1 Int) (J1 Int) (K1 Int) (L1 Int) (M1 Int) (N1 Int) (O1 Int) (P1 Int) (Q1 Int) (R1 Int) (S1 Int) (T1 Int) (U1 Int) (V1 Int) (W1 Int) (X1 Int) (Y1 Int) (Z1 Int) (A2 Int) (B2 Int) (C2 Int) (D2 Int) (E2 Int) (F2 Int) (G2 Int) (H2 Int) (I2 Int) (J2 Int) (K2 Int) (L2 Int) (M2 Int) (N2 Int) (O2 Int) (P2 Int) (Q2 Int) (R2 Int) (S2 Int) (T2 Int) (U2 Int) (V2 Int) (W2 Int) (X2 Int) (Y2 Int) (Z2 Int) (A3 Int) (B3 Int) (C3 Int) (D3 Int) (E3 Int) (F3 Int) (G3 Int) (H3 Int) (I3 Int) (J3 Int) (K3 Int) (L3 Int)) (not (and (and (and (and (and (and (and (and (and (and (and (and (and (and (and (and (and (and (and (and (and (and (and (and (and (and (and (and (and (and (and (and (and (and (and (and (and (and (and (and (and (and (and (and (and (and (and (and (and (and (and (and (and (and (and (and (and (and (and (and (and (and (and (and (and (and (and (and (and (and (and (and (and (and (and (and (and (and (and (and (and (and (and (and (and (and (and (and (and (and (and (and (and (and (INV_MAIN_1 A B C D E F G H I J) (INV_MAIN_1 K L M N O P Q R S T)) (INV_MAIN_1 U V W X Y Z A1 B1 C1 D1)) (INV_MAIN_1 E1 F1 G1 H1 I1 J1 K1 L1 M1 N1)) (INV_MAIN_1 O1 P1 Q1 R1 S1 T1 U1 V1 W1 X1)) (INV_MAIN_1 Y1 Z1 A2 B2 C2 D2 E2 F2 G2 H2)) (INV_MAIN_1 I2 J2 K2 L2 M2 N2 O2 P2 Q2 R2)) (INV_MAIN_1 S2 T2 U2 V2 W2 X2 Y2 Z2 A3 B3)) (INV_MAIN_1 C3 D3 E3 F3 G3 H3 I3 J3 K3 L3)) (not (and (= F3 C3) (not (= C2 G3))))) (not (and (= F3 E3) (not (= C2 G3))))) (not (and (= (+ I3 (- H3 F3)) 0) (not (= B3 L3))))) (not (and (= J3 F3) (not (= B3 L3))))) (not (= L3 G3))) (not (= B3 0))) (not (= C2 0))) (= K3 F3)) (= S2 C3)) (= T2 D3)) (= U2 E3)) (= V2 F3)) (= W2 G3)) (= X2 H3)) (= Y2 I3)) (= Z2 J3)) (= A3 J3)) (= I2 C3)) (= J2 D3)) (= K2 E3)) (= L2 F3)) (= M2 G3)) (= N2 H3)) (= O2 I3)) (= P2 J3)) (= (+ Q2 (- (* (- 1) I3) H3)) 0)) (= R2 B3)) (= Y1 C3)) (= Z1 D3)) (= A2 E3)) (= B2 E3)) (= D2 H3)) (= E2 I3)) (= F2 J3)) (= G2 F3)) (= H2 L3)) (= O1 C3)) (= P1 D3)) (= Q1 E3)) (= R1 E3)) (= S1 C2)) (= T1 H3)) (= U1 I3)) (= V1 J3)) (= W1 J3)) (= X1 B3)) (= E1 C3)) (= F1 D3)) (= G1 E3)) (= H1 E3)) (= I1 C2)) (= J1 H3)) (= K1 I3)) (= L1 J3)) (= (+ M1 (- (* (- 1) I3) H3)) 0)) (= N1 B3)) (= U C3)) (= V D3)) (= W E3)) (= X C3)) (= Y C2)) (= Z H3)) (= A1 I3)) (= B1 J3)) (= C1 F3)) (= D1 L3)) (= K C3)) (= L D3)) (= M E3)) (= N C3)) (= O C2)) (= P H3)) (= Q I3)) (= R J3)) (= S J3)) (= T B3)) (= A C3)) (= B D3)) (= C E3)) (= D C3)) (= E C2)) (= F H3)) (= G I3)) (= H J3)) (= (+ I (- (* (- 1) I3) H3)) 0)) (= J B3)))))
(assert (forall ((A Int) (B Int) (C Int) (D Int) (E Int) (F Int) (G Int) (H Int) (I Int) (J Int) (K Int) (L Int) (M Int) (N Int) (O Int) (P Int) (Q Int) (R Int) (S Int) (T Int) (U Int) (V Int) (W Int) (X Int) (Y Int) (Z Int) (A1 Int) (B1 Int) (C1 Int) (D1 Int) (E1 Int) (F1 Int) (G1 Int) (H1 Int) (I1 Int) (J1 Int) (K1 Int) (L1 Int) (M1 Int) (N1 Int)) (not (and (and (and (and (and (and (and (and (and (and (and (and (and (and (and (and (and (and (and (and (and (and (and (and (and (and (and (and (and (and (and (and (and (and (and (and (and (and (INV_MAIN_1 A B C D E F G H I J) (INV_MAIN_1 K L M N O P Q R S T)) (INV_MAIN_1 U V W X Y Z A1 B1 C1 D1)) (INV_MAIN_1 E1 F1 G1 H1 I1 J1 K1 L1 M1 N1)) (not (= I1 0))) (not (= L1 G1))) (not (= N1 0))) (= H1 G1)) (= M1 L1)) (= U E1)) (= V F1)) (= W G1)) (= X G1)) (= Y I1)) (= Z J1)) (= A1 K1)) (= B1 L1)) (= (+ C1 (- (* (- 1) K1) J1)) 0)) (= D1 N1)) (= K E1)) (= L F1)) (= M G1)) (= N E1)) (= O I1)) (= P J1)) (= Q K1)) (= R L1)) (= S L1)) (= T N1)) (= A E1)) (= B F1)) (= C G1)) (= D E1)) (= E I1)) (= F J1)) (= G K1)) (= H L1)) (= (+ I (- (* (- 1) K1) J1)) 0)) (= J N1)))))
(assert (forall ((A Int) (B Int) (C Int) (D Int) (E Int) (F Int) (G Int) (H Int) (I Int) (J Int) (K Int) (L Int) (M Int) (N Int) (O Int) (P Int) (Q Int) (R Int) (S Int) (T Int) (U Int) (V Int) (W Int) (X Int) (Y Int) (Z Int) (A1 Int) (B1 Int) (C1 Int) (D1 Int) (E1 Int) (F1 Int) (G1 Int) (H1 Int) (I1 Int) (J1 Int) (K1 Int) (L1 Int) (M1 Int) (N1 Int) (O1 Int) (P1 Int) (Q1 Int) (R1 Int) (S1 Int) (T1 Int) (U1 Int) (V1 Int))(=> (and (and (and (and (and (and (and (and (and (and (and (and (and (and (and (and (and (and (and (and (and (and (and (and (and (and (and (and (and (and (and (and (and (and (and (and (and (and (and (and (and (and (and (INV_MAIN_1 I J K L M N O P Q R) (INV_MAIN_1 S T U V W X Y Z A1 B1)) (INV_MAIN_1 C1 D1 E1 F1 G1 H1 I1 J1 K1 L1)) (INV_MAIN_1 M1 N1 O1 P1 Q1 R1 S1 T1 U1 V1)) (not (and (= M1 C) (not (= D 0))))) (not (and (= (+ S1 (- E G)) 0) (not (= H 0))))) (= N1 A)) (= (- O1 B) (- 1))) (= P1 C)) (= Q1 D)) (= R1 E)) (= (- T1 F) (- 1))) (= U1 G)) (= V1 H)) (= C1 M1)) (= D1 A)) (= (- E1 B) (- 1))) (= F1 C)) (= G1 D)) (= H1 E)) (= I1 S1)) (= (- J1 F) (- 1))) (= (+ K1 (- (* (- 1) S1) E)) 0)) (= L1 0)) (= S M1)) (= T A)) (= (- U B) (- 1))) (= V M1)) (= W 0)) (= X E)) (= Y S1)) (= (- Z F) (- 1))) (= A1 G)) (= B1 H)) (= I M1)) (= J A)) (= (- K B) (- 1))) (= L M1)) (= M 0)) (= N E)) (= O S1)) (= (- P F) (- 1))) (= (+ Q (- (* (- 1) S1) E)) 0)) (= R 0)) (INV_MAIN_0 A B C D E F G H))))
(assert (forall ((A Int) (B Int) (C Int) (D Int) (E Int) (F Int) (G Int) (H Int) (I Int) (J Int) (K Int) (L Int) (M Int) (N Int) (O Int) (P Int) (Q Int) (R Int) (S Int) (T Int) (U Int) (V Int) (W Int) (X Int) (Y Int) (Z Int) (A1 Int) (B1 Int) (C1 Int) (D1 Int) (E1 Int) (F1 Int) (G1 Int) (H1 Int) (I1 Int) (J1 Int) (K1 Int) (L1 Int) (M1 Int) (N1 Int) (O1 Int) (P1 Int) (Q1 Int) (R1 Int) (S1 Int) (T1 Int) (U1 Int) (V1 Int) (W1 Int) (X1 Int) (Y1 Int) (Z1 Int) (A2 Int) (B2 Int) (C2 Int) (D2 Int) (E2 Int) (F2 Int) (G2 Int) (H2 Int) (I2 Int) (J2 Int) (K2 Int) (L2 Int) (M2 Int) (N2 Int) (O2 Int) (P2 Int) (Q2 Int) (R2 Int) (S2 Int) (T2 Int) (U2 Int) (V2 Int) (W2 Int) (X2 Int) (Y2 Int) (Z2 Int) (A3 Int) (B3 Int) (C3 Int) (D3 Int) (E3 Int) (F3 Int) (G3 Int) (H3 Int) (I3 Int) (J3 Int) (K3 Int) (L3 Int) (M3 Int) (N3 Int) (O3 Int) (P3 Int) (Q3 Int) (R3 Int) (S3 Int) (T3 Int) (U3 Int) (V3 Int))(=> (and (and (and (and (and (and (and (and (and (and (and (and (and (and (and (and (and (and (and (and (and (and (and (and (and (and (and (and (and (and (and (and (and (and (and (and (and (and (and (and (and (and (and (and (and (and (and (and (and (and (and (and (and (and (and (and (and (and (and (and (and (and (and (and (and (and (and (and (and (and (and (and (and (and (and (and (and (and (and (and (and (and (and (and (and (and (and (and (and (and (and (and (and (and (and (and (and (and (and (and (and (and (and (and (INV_MAIN_1 K L M N O P Q R S T) (INV_MAIN_1 U V W X Y Z A1 B1 C1 D1)) (INV_MAIN_1 E1 F1 G1 H1 I1 J1 K1 L1 M1 N1)) (INV_MAIN_1 O1 P1 Q1 R1 S1 T1 U1 V1 W1 X1)) (INV_MAIN_1 Y1 Z1 A2 B2 C2 D2 E2 F2 G2 H2)) (INV_MAIN_1 I2 J2 K2 L2 M2 N2 O2 P2 Q2 R2)) (INV_MAIN_1 S2 T2 U2 V2 W2 X2 Y2 Z2 A3 B3)) (INV_MAIN_1 C3 D3 E3 F3 G3 H3 I3 J3 K3 L3)) (INV_MAIN_1 M3 N3 O3 P3 Q3 R3 S3 T3 U3 V3)) (not (and (= (- D A) (- 1)) (not (= I1 E))))) (not (and (= D C) (not (= M2 E))))) (not (and (= (+ I (- (* (- 1) G) F)) (- 1)) (not (= B3 J))))) (not (and (= I H) (not (= L3 J))))) (not (= (- C A) (- 1)))) (not (= (+ H (- (* (- 1) G) F)) (- 1)))) (not (= B3 0))) (not (= B3 L3))) (not (= I1 0))) (not (= I1 M2))) (= (- M3 A) (- 1))) (= N3 B)) (= O3 C)) (= P3 D)) (= Q3 E)) (= R3 F)) (= (- S3 G) (- 1))) (= T3 H)) (= U3 I)) (= V3 J)) (= (- C3 A) (- 1))) (= D3 B)) (= E3 C)) (= F3 D)) (= G3 E)) (= H3 F)) (= (- I3 G) (- 1))) (= J3 H)) (= K3 H)) (= (- S2 A) (- 1))) (= T2 B)) (= U2 C)) (= V2 D)) (= W2 E)) (= X2 F)) (= (- Y2 G) (- 1))) (= Z2 H)) (= (+ A3 (- (* (- 1) G) F)) (- 1))) (= (- I2 A) (- 1))) (= J2 B)) (= K2 C)) (= L2 C)) (= N2 F)) (= (- O2 G) (- 1))) (= P2 H)) (= Q2 I)) (= R2 J)) (= (- Y1 A) (- 1))) (= Z1 B)) (= A2 C)) (= B2 C)) (= C2 M2)) (= D2 F)) (= (- E2 G) (- 1))) (= F2 H)) (= G2 H)) (= H2 L3)) (= (- O1 A) (- 1))) (= P1 B)) (= Q1 C)) (= R1 C)) (= S1 M2)) (= T1 F)) (= (- U1 G) (- 1))) (= V1 H)) (= (+ W1 (- (* (- 1) G) F)) (- 1))) (= X1 B3)) (= (- E1 A) (- 1))) (= F1 B)) (= G1 C)) (= (- H1 A) (- 1))) (= J1 F)) (= (- K1 G) (- 1))) (= L1 H)) (= M1 I)) (= N1 J)) (= (- U A) (- 1))) (= V B)) (= W C)) (= (- X A) (- 1))) (= Y I1)) (= Z F)) (= (- A1 G) (- 1))) (= B1 H)) (= C1 H)) (= D1 L3)) (= (- K A) (- 1))) (= L B)) (= M C)) (= (- N A) (- 1))) (= O I1)) (= P F)) (= (- Q G) (- 1))) (= R H)) (= (+ S (- (* (- 1) G) F)) (- 1))) (= T B3)) (INV_MAIN_1 A B C D E F G H I J))))
(assert (forall ((A Int) (B Int) (C Int) (D Int) (E Int) (F Int) (G Int) (H Int) (I Int) (J Int) (K Int) (L Int) (M Int) (N Int) (O Int) (P Int) (Q Int) (R Int) (S Int) (T Int) (U Int) (V Int) (W Int) (X Int) (Y Int) (Z Int) (A1 Int) (B1 Int) (C1 Int) (D1 Int) (E1 Int) (F1 Int) (G1 Int) (H1 Int) (I1 Int) (J1 Int) (K1 Int) (L1 Int) (M1 Int) (N1 Int) (O1 Int) (P1 Int) (Q1 Int) (R1 Int) (S1 Int) (T1 Int) (U1 Int) (V1 Int) (W1 Int) (X1 Int) (Y1 Int) (Z1 Int) (A2 Int) (B2 Int) (C2 Int) (D2 Int) (E2 Int) (F2 Int) (G2 Int) (H2 Int) (I2 Int) (J2 Int) (K2 Int) (L2 Int) (M2 Int) (N2 Int) (O2 Int) (P2 Int) (Q2 Int) (R2 Int) (S2 Int) (T2 Int) (U2 Int) (V2 Int) (W2 Int) (X2 Int) (Y2 Int) (Z2 Int) (A3 Int) (B3 Int) (C3 Int) (D3 Int) (E3 Int) (F3 Int) (G3 Int) (H3 Int) (I3 Int) (J3 Int) (K3 Int) (L3 Int) (M3 Int) (N3 Int) (O3 Int) (P3 Int) (Q3 Int) (R3 Int) (S3 Int) (T3 Int) (U3 Int) (V3 Int))(=> (and (and (and (and (and (and (and (and (and (and (and (and (and (and (and (and (and (and (and (and (and (and (and (and (and (and (and (and (and (and (and (and (and (and (and (and (and (and (and (and (and (and (and (and (and (and (and (and (and (and (and (and (and (and (and (and (and (and (and (and (and (and (and (and (and (and (and (and (and (and (and (and (and (and (and (and (and (and (and (and (and (and (and (and (and (and (and (and (and (and (and (and (and (and (and (and (and (and (and (and (and (and (INV_MAIN_1 K L M N O P Q R S T) (INV_MAIN_1 U V W X Y Z A1 B1 C1 D1)) (INV_MAIN_1 E1 F1 G1 H1 I1 J1 K1 L1 M1 N1)) (INV_MAIN_1 O1 P1 Q1 R1 S1 T1 U1 V1 W1 X1)) (INV_MAIN_1 Y1 Z1 A2 B2 C2 D2 E2 F2 G2 H2)) (INV_MAIN_1 I2 J2 K2 L2 M2 N2 O2 P2 Q2 R2)) (INV_MAIN_1 S2 T2 U2 V2 W2 X2 Y2 Z2 A3 B3)) (INV_MAIN_1 C3 D3 E3 F3 G3 H3 I3 J3 K3 L3)) (INV_MAIN_1 M3 N3 O3 P3 Q3 R3 S3 T3 U3 V3)) (not (and (= (- D A) (- 1)) (not (= I1 E))))) (not (and (= D C) (not (= M2 E))))) (not (and (= (+ I (- (* (- 1) G) F)) 0) (not (= L3 J))))) (not (and (= I H) (not (= L3 J))))) (not (= (- C A) (- 1)))) (not (= I1 0))) (not (= I1 M2))) (= (- M3 A) (- 1))) (= N3 B)) (= O3 C)) (= P3 D)) (= Q3 E)) (= R3 F)) (= S3 G)) (= T3 H)) (= U3 I)) (= V3 J)) (= (- C3 A) (- 1))) (= D3 B)) (= E3 C)) (= F3 D)) (= G3 E)) (= H3 F)) (= I3 G)) (= J3 H)) (= K3 H)) (= (- S2 A) (- 1))) (= T2 B)) (= U2 C)) (= V2 D)) (= W2 E)) (= X2 F)) (= Y2 G)) (= Z2 H)) (= (+ A3 (- (* (- 1) G) F)) 0)) (= B3 L3)) (= (- I2 A) (- 1))) (= J2 B)) (= K2 C)) (= L2 C)) (= N2 F)) (= O2 G)) (= P2 H)) (= Q2 I)) (= R2 J)) (= (- Y1 A) (- 1))) (= Z1 B)) (= A2 C)) (= B2 C)) (= C2 M2)) (= D2 F)) (= E2 G)) (= F2 H)) (= G2 H)) (= H2 L3)) (= (- O1 A) (- 1))) (= P1 B)) (= Q1 C)) (= R1 C)) (= S1 M2)) (= T1 F)) (= U1 G)) (= V1 H)) (= (+ W1 (- (* (- 1) G) F)) 0)) (= X1 L3)) (= (- E1 A) (- 1))) (= F1 B)) (= G1 C)) (= (- H1 A) (- 1))) (= J1 F)) (= K1 G)) (= L1 H)) (= M1 I)) (= N1 J)) (= (- U A) (- 1))) (= V B)) (= W C)) (= (- X A) (- 1))) (= Y I1)) (= Z F)) (= A1 G)) (= B1 H)) (= C1 H)) (= D1 L3)) (= (- K A) (- 1))) (= L B)) (= M C)) (= (- N A) (- 1))) (= O I1)) (= P F)) (= Q G)) (= R H)) (= (+ S (- (* (- 1) G) F)) 0)) (= T L3)) (INV_MAIN_1 A B C D E F G H I J))))
(assert (forall ((A Int) (B Int) (C Int) (D Int) (E Int) (F Int) (G Int) (H Int) (I Int) (J Int) (K Int) (L Int) (M Int) (N Int) (O Int) (P Int) (Q Int) (R Int) (S Int) (T Int) (U Int) (V Int) (W Int) (X Int) (Y Int) (Z Int) (A1 Int) (B1 Int) (C1 Int) (D1 Int) (E1 Int) (F1 Int) (G1 Int) (H1 Int) (I1 Int) (J1 Int) (K1 Int) (L1 Int) (M1 Int) (N1 Int) (O1 Int) (P1 Int) (Q1 Int) (R1 Int) (S1 Int) (T1 Int) (U1 Int) (V1 Int) (W1 Int) (X1 Int) (Y1 Int) (Z1 Int) (A2 Int) (B2 Int) (C2 Int) (D2 Int) (E2 Int) (F2 Int) (G2 Int) (H2 Int) (I2 Int) (J2 Int) (K2 Int) (L2 Int) (M2 Int) (N2 Int) (O2 Int) (P2 Int) (Q2 Int) (R2 Int))(=> (and (and (and (and (and (and (and (and (and (and (and (and (and (and (and (and (and (and (and (and (and (and (and (and (and (and (and (and (and (and (and (and (and (and (and (and (and (and (and (and (and (and (and (and (and (and (and (and (and (and (and (and (and (and (and (and (and (and (and (and (and (and (and (and (and (and (and (and (and (INV_MAIN_1 K L M N O P Q R S T) (INV_MAIN_1 U V W X Y Z A1 B1 C1 D1)) (INV_MAIN_1 E1 F1 G1 H1 I1 J1 K1 L1 M1 N1)) (INV_MAIN_1 O1 P1 Q1 R1 S1 T1 U1 V1 W1 X1)) (INV_MAIN_1 Y1 Z1 A2 B2 C2 D2 E2 F2 G2 H2)) (INV_MAIN_1 I2 J2 K2 L2 M2 N2 O2 P2 Q2 R2)) (not (and (= (- D A) (- 1)) (not (= Y E))))) (not (and (= D C) (not (= S1 E))))) (not (and (= (+ I (- (* (- 1) G) F)) 0) (not (= J 0))))) (not (= (- C A) (- 1)))) (not (= Y 0))) (not (= Y S1))) (= (- I2 A) (- 1))) (= J2 B)) (= K2 C)) (= L2 D)) (= M2 E)) (= N2 F)) (= O2 G)) (= P2 H)) (= Q2 I)) (= R2 J)) (= (- Y1 A) (- 1))) (= Z1 B)) (= A2 C)) (= B2 D)) (= C2 E)) (= D2 F)) (= E2 G)) (= F2 H)) (= (+ G2 (- (* (- 1) G) F)) 0)) (= H2 0)) (= (- O1 A) (- 1))) (= P1 B)) (= Q1 C)) (= R1 C)) (= T1 F)) (= U1 G)) (= V1 H)) (= W1 I)) (= X1 J)) (= (- E1 A) (- 1))) (= F1 B)) (= G1 C)) (= H1 C)) (= I1 S1)) (= J1 F)) (= K1 G)) (= L1 H)) (= (+ M1 (- (* (- 1) G) F)) 0)) (= N1 0)) (= (- U A) (- 1))) (= V B)) (= W C)) (= (- X A) (- 1))) (= Z F)) (= A1 G)) (= B1 H)) (= C1 I)) (= D1 J)) (= (- K A) (- 1))) (= L B)) (= M C)) (= (- N A) (- 1))) (= O Y)) (= P F)) (= Q G)) (= R H)) (= (+ S (- (* (- 1) G) F)) 0)) (= T 0)) (INV_MAIN_1 A B C D E F G H I J))))
(assert (forall ((A Int) (B Int) (C Int) (D Int) (E Int) (F Int) (G Int) (H Int) (I Int) (J Int) (K Int) (L Int) (M Int) (N Int) (O Int) (P Int) (Q Int) (R Int) (S Int) (T Int) (U Int) (V Int) (W Int) (X Int) (Y Int) (Z Int) (A1 Int) (B1 Int) (C1 Int) (D1 Int) (E1 Int) (F1 Int) (G1 Int) (H1 Int) (I1 Int) (J1 Int) (K1 Int) (L1 Int) (M1 Int) (N1 Int) (O1 Int) (P1 Int) (Q1 Int) (R1 Int) (S1 Int) (T1 Int) (U1 Int) (V1 Int) (W1 Int) (X1 Int) (Y1 Int) (Z1 Int) (A2 Int) (B2 Int) (C2 Int) (D2 Int) (E2 Int) (F2 Int) (G2 Int) (H2 Int) (I2 Int) (J2 Int) (K2 Int) (L2 Int) (M2 Int) (N2 Int) (O2 Int) (P2 Int) (Q2 Int) (R2 Int) (S2 Int) (T2 Int) (U2 Int) (V2 Int) (W2 Int) (X2 Int) (Y2 Int) (Z2 Int) (A3 Int) (B3 Int) (C3 Int) (D3 Int) (E3 Int) (F3 Int) (G3 Int) (H3 Int) (I3 Int) (J3 Int) (K3 Int) (L3 Int) (M3 Int) (N3 Int) (O3 Int) (P3 Int) (Q3 Int) (R3 Int) (S3 Int) (T3 Int) (U3 Int) (V3 Int))(=> (and (and (and (and (and (and (and (and (and (and (and (and (and (and (and (and (and (and (and (and (and (and (and (and (and (and (and (and (and (and (and (and (and (and (and (and (and (and (and (and (and (and (and (and (and (and (and (and (and (and (and (and (and (and (and (and (and (and (and (and (and (and (and (and (and (and (and (and (and (and (and (and (and (and (and (and (and (and (and (and (and (and (and (and (and (and (and (and (and (and (and (and (and (and (and (and (and (and (and (and (and (and (INV_MAIN_1 K L M N O P Q R S T) (INV_MAIN_1 U V W X Y Z A1 B1 C1 D1)) (INV_MAIN_1 E1 F1 G1 H1 I1 J1 K1 L1 M1 N1)) (INV_MAIN_1 O1 P1 Q1 R1 S1 T1 U1 V1 W1 X1)) (INV_MAIN_1 Y1 Z1 A2 B2 C2 D2 E2 F2 G2 H2)) (INV_MAIN_1 I2 J2 K2 L2 M2 N2 O2 P2 Q2 R2)) (INV_MAIN_1 S2 T2 U2 V2 W2 X2 Y2 Z2 A3 B3)) (INV_MAIN_1 C3 D3 E3 F3 G3 H3 I3 J3 K3 L3)) (INV_MAIN_1 M3 N3 O3 P3 Q3 R3 S3 T3 U3 V3)) (not (and (= D A) (not (= M2 E))))) (not (and (= D C) (not (= M2 E))))) (not (and (= (+ I (- (* (- 1) G) F)) (- 1)) (not (= B3 J))))) (not (and (= I H) (not (= L3 J))))) (not (= (+ H (- (* (- 1) G) F)) (- 1)))) (not (= B3 0))) (not (= B3 L3))) (= M3 A)) (= N3 B)) (= O3 C)) (= P3 D)) (= Q3 E)) (= R3 F)) (= (- S3 G) (- 1))) (= T3 H)) (= U3 I)) (= V3 J)) (= C3 A)) (= D3 B)) (= E3 C)) (= F3 D)) (= G3 E)) (= H3 F)) (= (- I3 G) (- 1))) (= J3 H)) (= K3 H)) (= S2 A)) (= T2 B)) (= U2 C)) (= V2 D)) (= W2 E)) (= X2 F)) (= (- Y2 G) (- 1))) (= Z2 H)) (= (+ A3 (- (* (- 1) G) F)) (- 1))) (= I2 A)) (= J2 B)) (= K2 C)) (= L2 C)) (= N2 F)) (= (- O2 G) (- 1))) (= P2 H)) (= Q2 I)) (= R2 J)) (= Y1 A)) (= Z1 B)) (= A2 C)) (= B2 C)) (= C2 M2)) (= D2 F)) (= (- E2 G) (- 1))) (= F2 H)) (= G2 H)) (= H2 L3)) (= O1 A)) (= P1 B)) (= Q1 C)) (= R1 C)) (= S1 M2)) (= T1 F)) (= (- U1 G) (- 1))) (= V1 H)) (= (+ W1 (- (* (- 1) G) F)) (- 1))) (= X1 B3)) (= E1 A)) (= F1 B)) (= G1 C)) (= H1 A)) (= I1 M2)) (= J1 F)) (= (- K1 G) (- 1))) (= L1 H)) (= M1 I)) (= N1 J)) (= U A)) (= V B)) (= W C)) (= X A)) (= Y M2)) (= Z F)) (= (- A1 G) (- 1))) (= B1 H)) (= C1 H)) (= D1 L3)) (= K A)) (= L B)) (= M C)) (= N A)) (= O M2)) (= P F)) (= (- Q G) (- 1))) (= R H)) (= (+ S (- (* (- 1) G) F)) (- 1))) (= T B3)) (INV_MAIN_1 A B C D E F G H I J))))
(assert (forall ((A Int) (B Int) (C Int) (D Int) (E Int) (F Int) (G Int) (H Int) (I Int) (J Int) (K Int) (L Int) (M Int) (N Int) (O Int) (P Int) (Q Int) (R Int) (S Int) (T Int) (U Int) (V Int) (W Int) (X Int) (Y Int) (Z Int) (A1 Int) (B1 Int) (C1 Int) (D1 Int) (E1 Int) (F1 Int) (G1 Int) (H1 Int) (I1 Int) (J1 Int) (K1 Int) (L1 Int) (M1 Int) (N1 Int) (O1 Int) (P1 Int) (Q1 Int) (R1 Int) (S1 Int) (T1 Int) (U1 Int) (V1 Int) (W1 Int) (X1 Int) (Y1 Int) (Z1 Int) (A2 Int) (B2 Int) (C2 Int) (D2 Int) (E2 Int) (F2 Int) (G2 Int) (H2 Int) (I2 Int) (J2 Int) (K2 Int) (L2 Int) (M2 Int) (N2 Int) (O2 Int) (P2 Int) (Q2 Int) (R2 Int))(=> (and (and (and (and (and (and (and (and (and (and (and (and (and (and (and (and (and (and (and (and (and (and (and (and (and (and (and (and (and (and (and (and (and (and (and (and (and (and (and (and (and (and (and (and (and (and (and (and (and (and (and (and (and (and (and (and (and (and (and (and (and (and (and (and (and (and (and (and (and (INV_MAIN_1 K L M N O P Q R S T) (INV_MAIN_1 U V W X Y Z A1 B1 C1 D1)) (INV_MAIN_1 E1 F1 G1 H1 I1 J1 K1 L1 M1 N1)) (INV_MAIN_1 O1 P1 Q1 R1 S1 T1 U1 V1 W1 X1)) (INV_MAIN_1 Y1 Z1 A2 B2 C2 D2 E2 F2 G2 H2)) (INV_MAIN_1 I2 J2 K2 L2 M2 N2 O2 P2 Q2 R2)) (not (and (= D A) (not (= E 0))))) (not (and (= (+ I (- (* (- 1) G) F)) (- 1)) (not (= X1 J))))) (not (and (= I H) (not (= H2 J))))) (not (= (+ H (- (* (- 1) G) F)) (- 1)))) (not (= X1 0))) (not (= X1 H2))) (= I2 A)) (= J2 B)) (= K2 C)) (= L2 D)) (= M2 E)) (= N2 F)) (= (- O2 G) (- 1))) (= P2 H)) (= Q2 I)) (= R2 J)) (= Y1 A)) (= Z1 B)) (= A2 C)) (= B2 D)) (= C2 E)) (= D2 F)) (= (- E2 G) (- 1))) (= F2 H)) (= G2 H)) (= O1 A)) (= P1 B)) (= Q1 C)) (= R1 D)) (= S1 E)) (= T1 F)) (= (- U1 G) (- 1))) (= V1 H)) (= (+ W1 (- (* (- 1) G) F)) (- 1))) (= E1 A)) (= F1 B)) (= G1 C)) (= H1 A)) (= I1 0)) (= J1 F)) (= (- K1 G) (- 1))) (= L1 H)) (= M1 I)) (= N1 J)) (= U A)) (= V B)) (= W C)) (= X A)) (= Y 0)) (= Z F)) (= (- A1 G) (- 1))) (= B1 H)) (= C1 H)) (= D1 H2)) (= K A)) (= L B)) (= M C)) (= N A)) (= O 0)) (= P F)) (= (- Q G) (- 1))) (= R H)) (= (+ S (- (* (- 1) G) F)) (- 1))) (= T X1)) (INV_MAIN_1 A B C D E F G H I J))))
(check-sat)
